/*********************************************
 * OPL 12.6.0.0 Data
 * Author: Adrian Rodriguez Bazaga, Pau Rodriguez Esmerats
 * Creation Date: 06/12/2017 at 23:03:02
 *********************************************/

nNurses=222;
maxConsec=2;
maxPresence=7;
maxHours=5;
minHours=1;
hours=24;
demand= [44 37 59 66 37 59 66 39 40 26 4 6 5 8 6 6 3 4 2 2 21 44 24 42  ];
